c Sudoku solution
p cnf 729 0
147 0
256 0
275 0
328 0
337 0
343 0
361 0
384 0
429 0
433 0
451 0
477 0
526 0
582 0
591 0
618 0
645 0
673 0
694 0
727 0
517 0
535 0
414 0
744 0
776 0
798 0
919 0
955 0
165 0
315 0
396 0
785 0
825 0
495 0
987 0
297 0
732 0
711 0
631 0
622 0
753 0
769 0
563 0
554 0
264 0
239 0
549 0
657 0
666 0
486 0
689 0
578 0
867 0
968 0
852 0
838 0
874 0
899 0
359 0
242 0
158 0
288 0
221 0
213 0
112 0
124 0
136 0
372 0
816 0
923 0
934 0
883 0
971 0
992 0
841 0
946 0
448 0
462 0
179 0
181 0
193 0
